************************************************************************
file with basedata            : mm16_.bas
initial value random generator: 421331328
************************************************************************
projects                      :  1
jobs (incl. supersource/sink ):  12
horizon                       :  86
RESOURCES
  - renewable                 :  2   R
  - nonrenewable              :  2   N
  - doubly constrained        :  0   D
************************************************************************
PROJECT INFORMATION:
pronr.  #jobs rel.date duedate tardcost  MPM-Time
    1     10      0       21        8       21
************************************************************************
PRECEDENCE RELATIONS:
jobnr.    #modes  #successors   successors
   0        1          3           1   2   3
   1        3          2           5   9
   2        3          2           4   5
   3        3          2           9  10
   4        3          2           6   9
   5        3          1           6
   6        3          2           7  10
   7        3          1           8
   8        3          1          11
   9        3          1          11
  10        3          1          11
  11        1          0        
************************************************************************
REQUESTS/DURATIONS:
jobnr. mode duration  R 1  R 2  R 3  R 4  E(W 1)  E(W 2)
------------------------------------------------------------------------
  0      1     0       0    0    0    0     0       0
  1      1     2       0    8    6    7    16      26
  2      1     3       7    0    8    8    21      48
  3      1     1       7    0    8    8     7      16
  4      1     1       0    5    6    9     5      15
  5      1     7       0    5    8    7    35      105
  6      1     4       5    0    8    5    20      52
  7      1     3       7    0   10    4    21      42
  8      1     4       8    0   10    7    32      68
  9      1     4       0    1    7    9     8      64
 10      1     4       0    3    8    6    12      56
 11      1     0       0    0    0    0     0       0
************************************************************************
RESOURCEAVAILABILITIES:
  R 1  R 2
   21   150
************************************************************************
RESOURCE LIMITS:
jobnr.  l(R 1)  u(R 1)  l(R 2)  u(R 2)
------------------------------------------------------------------------
  0        0       0       0       0
  1        4       8       7      13
  2        4       7       8      16
  3        4       7       8      16
  4        3       5       8      15
  5        3       5       8      15
  6        3       5       7      13
  7        4       7       7      14
  8        4       8       9      17
  9        1       2       9      16
 10        2       3       7      14
 11        0       0       0       0
************************************************************************
SCENARIOS:
------------------------------------------------------------------------
RESOURCE k = 1
s = 1: (0, 16, 24, 7, 4, 41, 30, 28, 41, 7, 17, 0)
s = 2: (0, 12, 16, 8, 5, 41, 26, 19, 37, 5, 9, 0)
s = 3: (0, 13, 22, 8, 8, 38, 19, 16, 31, 6, 10, 0)
s = 4: (0, 17, 27, 8, 8, 37, 23, 16, 39, 10, 10, 0)
s = 5: (0, 27, 15, 10, 7, 39, 26, 22, 28, 11, 15, 0)
s = 6: (0, 17, 19, 7, 3, 49, 11, 22, 42, 7, 14, 0)
s = 7: (0, 20, 25, 11, 4, 47, 18, 13, 48, 5, 10, 0)
s = 8: (0, 13, 31, 8, 5, 37, 21, 18, 42, 8, 15, 0)
s = 9: (0, 19, 13, 11, 7, 30, 16, 28, 21, 8, 16, 0)
s = 10: (0, 21, 32, 5, 5, 35, 22, 18, 24, 7, 9, 0)
s = 11: (0, 11, 26, 10, 5, 29, 19, 14, 34, 13, 16, 0)
s = 12: (0, 11, 25, 7, 5, 37, 29, 23, 32, 10, 7, 0)
s = 13: (0, 13, 17, 8, 5, 31, 20, 14, 32, 5, 10, 0)
s = 14: (0, 19, 26, 4, 6, 32, 18, 19, 26, 12, 12, 0)
s = 15: (0, 12, 19, 6, 6, 54, 18, 22, 26, 7, 16, 0)
s = 16: (0, 15, 22, 9, 6, 38, 14, 15, 20, 13, 16, 0)
s = 17: (0, 21, 21, 9, 4, 33, 12, 17, 27, 6, 18, 0)
s = 18: (0, 16, 26, 7, 6, 38, 15, 31, 43, 7, 10, 0)
s = 19: (0, 12, 28, 10, 5, 43, 19, 15, 28, 7, 14, 0)
s = 20: (0, 17, 19, 5, 4, 38, 15, 26, 28, 11, 11, 0)
s = 21: (0, 16, 21, 9, 3, 34, 18, 19, 25, 11, 12, 0)
s = 22: (0, 24, 23, 7, 5, 35, 25, 14, 20, 8, 16, 0)
s = 23: (0, 17, 16, 5, 6, 41, 22, 18, 51, 13, 13, 0)
s = 24: (0, 18, 15, 6, 5, 42, 23, 19, 21, 8, 16, 0)
s = 25: (0, 18, 19, 6, 6, 22, 22, 34, 22, 8, 13, 0)
s = 26: (0, 14, 33, 5, 4, 22, 25, 24, 35, 12, 21, 0)
s = 27: (0, 12, 31, 5, 5, 33, 29, 22, 23, 8, 11, 0)
s = 28: (0, 23, 23, 7, 4, 33, 17, 13, 25, 10, 13, 0)
s = 29: (0, 24, 26, 6, 5, 28, 25, 28, 19, 10, 9, 0)
s = 30: (0, 17, 19, 5, 7, 34, 18, 27, 27, 8, 11, 0)
s = 31: (0, 17, 27, 8, 5, 38, 19, 31, 27, 7, 11, 0)
s = 32: (0, 16, 34, 11, 4, 43, 32, 28, 50, 10, 10, 0)
s = 33: (0, 20, 31, 6, 4, 44, 16, 15, 51, 6, 14, 0)
s = 34: (0, 23, 18, 8, 5, 22, 15, 29, 36, 5, 11, 0)
s = 35: (0, 15, 17, 9, 8, 38, 27, 22, 33, 10, 15, 0)
s = 36: (0, 21, 15, 12, 6, 26, 22, 19, 28, 11, 11, 0)
s = 37: (0, 29, 20, 10, 5, 26, 35, 21, 28, 9, 14, 0)
s = 38: (0, 14, 17, 5, 6, 27, 21, 28, 33, 6, 19, 0)
s = 39: (0, 14, 29, 6, 5, 49, 24, 32, 28, 11, 9, 0)
s = 40: (0, 16, 27, 8, 6, 42, 16, 31, 34, 6, 15, 0)
s = 41: (0, 13, 18, 5, 5, 57, 21, 23, 30, 8, 16, 0)
s = 42: (0, 15, 15, 8, 7, 43, 22, 37, 23, 11, 14, 0)
s = 43: (0, 24, 29, 9, 4, 48, 27, 15, 23, 13, 10, 0)
s = 44: (0, 9, 19, 8, 6, 26, 15, 14, 25, 11, 12, 0)
s = 45: (0, 19, 14, 8, 6, 31, 17, 20, 43, 10, 18, 0)
s = 46: (0, 15, 23, 10, 8, 38, 18, 24, 47, 9, 15, 0)
s = 47: (0, 22, 25, 9, 5, 44, 17, 20, 32, 11, 13, 0)
s = 48: (0, 19, 29, 5, 6, 22, 22, 20, 27, 11, 12, 0)
s = 49: (0, 13, 16, 8, 5, 41, 15, 13, 27, 7, 13, 0)
s = 50: (0, 14, 22, 8, 7, 46, 19, 30, 23, 9, 12, 0)
s = 51: (0, 22, 30, 8, 6, 28, 25, 21, 39, 8, 15, 0)
s = 52: (0, 15, 30, 7, 7, 26, 14, 15, 19, 5, 14, 0)
s = 53: (0, 21, 23, 7, 6, 52, 15, 15, 33, 5, 11, 0)
s = 54: (0, 14, 30, 7, 6, 24, 15, 25, 22, 10, 11, 0)
s = 55: (0, 13, 25, 9, 3, 47, 20, 24, 24, 5, 11, 0)
s = 56: (0, 19, 21, 11, 7, 34, 23, 21, 30, 7, 13, 0)
s = 57: (0, 22, 26, 6, 6, 43, 23, 14, 40, 10, 21, 0)
s = 58: (0, 20, 15, 7, 6, 27, 23, 16, 38, 11, 15, 0)
s = 59: (0, 26, 26, 8, 6, 39, 15, 31, 19, 6, 20, 0)
s = 60: (0, 29, 33, 5, 5, 22, 14, 25, 49, 12, 11, 0)
s = 61: (0, 16, 18, 9, 5, 21, 21, 28, 30, 14, 20, 0)
s = 62: (0, 15, 15, 8, 3, 53, 14, 42, 39, 7, 12, 0)
s = 63: (0, 17, 32, 9, 4, 20, 18, 23, 36, 6, 14, 0)
s = 64: (0, 12, 18, 8, 6, 36, 21, 16, 44, 11, 8, 0)
s = 65: (0, 13, 14, 7, 6, 27, 30, 21, 54, 10, 16, 0)
s = 66: (0, 28, 23, 7, 5, 49, 26, 38, 24, 8, 8, 0)
s = 67: (0, 15, 14, 9, 4, 37, 29, 34, 25, 6, 7, 0)
s = 68: (0, 15, 22, 5, 6, 43, 20, 18, 45, 7, 20, 0)
s = 69: (0, 11, 27, 6, 4, 32, 21, 28, 27, 8, 11, 0)
s = 70: (0, 13, 19, 6, 7, 33, 18, 20, 20, 11, 11, 0)
s = 71: (0, 23, 19, 6, 6, 20, 14, 20, 30, 11, 12, 0)
s = 72: (0, 18, 15, 8, 4, 43, 20, 20, 38, 6, 11, 0)
s = 73: (0, 19, 17, 7, 6, 26, 27, 30, 34, 9, 17, 0)
s = 74: (0, 16, 33, 10, 5, 30, 11, 26, 39, 10, 11, 0)
s = 75: (0, 14, 17, 12, 5, 33, 27, 26, 39, 5, 14, 0)
s = 76: (0, 21, 25, 8, 4, 34, 25, 25, 31, 6, 9, 0)
s = 77: (0, 17, 12, 7, 4, 43, 25, 24, 23, 8, 14, 0)
s = 78: (0, 17, 25, 7, 6, 30, 14, 26, 30, 7, 13, 0)
s = 79: (0, 11, 29, 8, 8, 39, 17, 20, 32, 9, 11, 0)
s = 80: (0, 11, 21, 7, 5, 40, 24, 12, 35, 10, 17, 0)
s = 81: (0, 11, 15, 6, 5, 21, 18, 25, 32, 10, 15, 0)
s = 82: (0, 15, 22, 6, 7, 32, 14, 36, 17, 9, 13, 0)
s = 83: (0, 21, 17, 6, 4, 36, 11, 20, 47, 7, 10, 0)
s = 84: (0, 13, 17, 7, 7, 37, 23, 25, 24, 9, 10, 0)
s = 85: (0, 23, 22, 10, 5, 46, 29, 21, 26, 6, 7, 0)
s = 86: (0, 17, 12, 6, 4, 31, 20, 26, 28, 6, 10, 0)
s = 87: (0, 19, 30, 8, 4, 29, 22, 25, 19, 8, 15, 0)
s = 88: (0, 23, 24, 11, 6, 20, 18, 28, 25, 11, 9, 0)
s = 89: (0, 12, 25, 8, 6, 27, 22, 18, 33, 8, 13, 0)
s = 90: (0, 24, 31, 8, 7, 41, 16, 32, 26, 9, 8, 0)
s = 91: (0, 19, 17, 6, 5, 27, 22, 16, 33, 10, 10, 0)
s = 92: (0, 22, 18, 6, 4, 35, 16, 26, 22, 6, 11, 0)
s = 93: (0, 30, 17, 7, 5, 37, 15, 24, 26, 6, 12, 0)
s = 94: (0, 25, 13, 7, 10, 34, 27, 26, 34, 9, 11, 0)
s = 95: (0, 29, 17, 5, 8, 27, 23, 24, 27, 9, 11, 0)
s = 96: (0, 17, 27, 8, 6, 40, 31, 29, 42, 11, 13, 0)
s = 97: (0, 17, 29, 8, 6, 31, 23, 19, 31, 9, 12, 0)
s = 98: (0, 19, 16, 7, 8, 43, 23, 26, 35, 10, 16, 0)
s = 99: (0, 18, 27, 11, 5, 68, 15, 15, 37, 7, 9, 0)
s = 100: (0, 13, 27, 7, 4, 29, 18, 17, 22, 11, 16, 0)
s = 101: (0, 16, 31, 5, 4, 31, 17, 16, 29, 7, 16, 0)
s = 102: (0, 19, 20, 6, 6, 62, 19, 20, 30, 7, 10, 0)
s = 103: (0, 11, 27, 6, 5, 42, 12, 26, 45, 11, 12, 0)
s = 104: (0, 26, 21, 11, 5, 31, 19, 25, 33, 13, 13, 0)
s = 105: (0, 15, 27, 12, 6, 22, 14, 28, 34, 7, 14, 0)
s = 106: (0, 16, 23, 7, 7, 29, 24, 15, 66, 7, 19, 0)
s = 107: (0, 11, 29, 5, 4, 41, 22, 24, 41, 6, 11, 0)
s = 108: (0, 17, 33, 5, 6, 24, 20, 15, 43, 14, 9, 0)
s = 109: (0, 21, 17, 9, 6, 26, 17, 17, 26, 9, 15, 0)
s = 110: (0, 10, 16, 10, 7, 21, 24, 28, 42, 5, 12, 0)
s = 111: (0, 25, 21, 12, 9, 52, 26, 16, 21, 15, 10, 0)
s = 112: (0, 16, 35, 5, 7, 23, 25, 14, 32, 9, 10, 0)
s = 113: (0, 13, 18, 5, 4, 26, 25, 21, 51, 9, 15, 0)
s = 114: (0, 17, 38, 7, 5, 30, 25, 23, 36, 6, 20, 0)
s = 115: (0, 12, 23, 9, 6, 67, 11, 18, 28, 7, 13, 0)
s = 116: (0, 14, 26, 7, 4, 33, 37, 26, 21, 13, 12, 0)
s = 117: (0, 18, 27, 7, 5, 41, 24, 19, 35, 8, 9, 0)
s = 118: (0, 24, 22, 4, 6, 32, 24, 14, 41, 11, 10, 0)
s = 119: (0, 12, 16, 7, 4, 27, 15, 33, 49, 6, 7, 0)
s = 120: (0, 20, 19, 8, 7, 24, 17, 28, 25, 6, 13, 0)
s = 121: (0, 14, 21, 10, 4, 44, 21, 18, 25, 15, 11, 0)
s = 122: (0, 14, 20, 10, 4, 39, 23, 27, 35, 8, 12, 0)
s = 123: (0, 19, 13, 6, 6, 33, 15, 22, 36, 6, 14, 0)
s = 124: (0, 18, 12, 8, 6, 55, 13, 25, 31, 8, 11, 0)
s = 125: (0, 23, 21, 9, 8, 50, 21, 22, 22, 9, 8, 0)
s = 126: (0, 18, 16, 7, 8, 28, 36, 14, 30, 15, 14, 0)
s = 127: (0, 15, 32, 6, 4, 33, 18, 18, 43, 9, 10, 0)
s = 128: (0, 16, 22, 9, 8, 32, 21, 17, 51, 10, 8, 0)
s = 129: (0, 12, 35, 6, 4, 58, 14, 25, 29, 7, 13, 0)
s = 130: (0, 20, 16, 9, 7, 25, 20, 30, 28, 10, 13, 0)
s = 131: (0, 11, 13, 11, 9, 23, 20, 27, 23, 5, 18, 0)
s = 132: (0, 17, 20, 9, 5, 26, 13, 27, 29, 7, 14, 0)
s = 133: (0, 25, 20, 9, 8, 27, 27, 18, 26, 12, 12, 0)
s = 134: (0, 23, 19, 11, 5, 52, 15, 28, 33, 8, 13, 0)
s = 135: (0, 22, 34, 5, 10, 39, 16, 17, 42, 6, 9, 0)
s = 136: (0, 19, 16, 7, 8, 58, 22, 24, 30, 6, 15, 0)
s = 137: (0, 12, 14, 7, 5, 20, 16, 25, 23, 8, 12, 0)
s = 138: (0, 20, 14, 12, 4, 30, 23, 24, 23, 7, 10, 0)
s = 139: (0, 12, 31, 7, 6, 25, 25, 35, 30, 8, 17, 0)
s = 140: (0, 14, 23, 7, 4, 37, 13, 19, 36, 11, 18, 0)
s = 141: (0, 13, 27, 6, 5, 30, 23, 21, 38, 8, 14, 0)
s = 142: (0, 18, 17, 7, 5, 39, 12, 23, 48, 13, 11, 0)
s = 143: (0, 20, 20, 8, 8, 48, 29, 25, 24, 10, 14, 0)
s = 144: (0, 11, 16, 6, 7, 52, 23, 16, 39, 10, 21, 0)
s = 145: (0, 20, 26, 4, 5, 33, 29, 26, 26, 8, 12, 0)
s = 146: (0, 12, 16, 8, 5, 31, 18, 27, 48, 11, 12, 0)
s = 147: (0, 10, 20, 8, 5, 21, 30, 23, 42, 5, 12, 0)
s = 148: (0, 15, 20, 9, 4, 34, 22, 27, 27, 8, 11, 0)
s = 149: (0, 15, 17, 10, 6, 51, 20, 27, 20, 8, 11, 0)
s = 150: (0, 10, 17, 6, 4, 25, 27, 31, 43, 6, 23, 0)
s = 151: (0, 19, 20, 7, 7, 38, 13, 11, 21, 10, 12, 0)
s = 152: (0, 19, 18, 6, 5, 28, 13, 35, 32, 8, 18, 0)
s = 153: (0, 16, 20, 6, 6, 30, 23, 24, 19, 6, 14, 0)
s = 154: (0, 12, 22, 8, 7, 40, 14, 31, 24, 11, 11, 0)
s = 155: (0, 16, 18, 7, 6, 56, 20, 27, 26, 12, 8, 0)
s = 156: (0, 13, 20, 7, 6, 34, 25, 15, 30, 8, 12, 0)
s = 157: (0, 12, 13, 6, 4, 36, 27, 13, 29, 8, 9, 0)
s = 158: (0, 18, 27, 8, 5, 21, 20, 21, 46, 6, 16, 0)
s = 159: (0, 11, 23, 11, 8, 44, 12, 23, 43, 8, 16, 0)
s = 160: (0, 20, 21, 8, 6, 37, 17, 19, 22, 8, 11, 0)
s = 161: (0, 14, 29, 4, 6, 30, 18, 19, 34, 8, 11, 0)
s = 162: (0, 22, 28, 7, 6, 38, 18, 33, 33, 9, 14, 0)
s = 163: (0, 10, 35, 11, 5, 26, 27, 19, 31, 10, 12, 0)
s = 164: (0, 10, 29, 7, 5, 30, 39, 17, 31, 8, 12, 0)
s = 165: (0, 21, 16, 7, 4, 38, 23, 34, 39, 9, 10, 0)
s = 166: (0, 12, 15, 5, 7, 24, 14, 18, 43, 9, 23, 0)
s = 167: (0, 15, 24, 7, 4, 47, 18, 21, 20, 7, 10, 0)
s = 168: (0, 14, 17, 8, 5, 40, 16, 29, 40, 13, 12, 0)
s = 169: (0, 13, 20, 11, 5, 38, 21, 28, 24, 6, 9, 0)
s = 170: (0, 13, 21, 7, 7, 41, 23, 29, 20, 11, 16, 0)
s = 171: (0, 20, 20, 5, 4, 44, 28, 17, 35, 9, 13, 0)
s = 172: (0, 12, 13, 7, 6, 33, 27, 15, 41, 9, 13, 0)
s = 173: (0, 16, 16, 8, 6, 27, 27, 32, 31, 8, 16, 0)
s = 174: (0, 30, 12, 8, 6, 24, 16, 28, 27, 8, 18, 0)
s = 175: (0, 16, 29, 7, 5, 45, 26, 32, 33, 7, 7, 0)
s = 176: (0, 10, 20, 7, 4, 30, 19, 15, 37, 8, 18, 0)
s = 177: (0, 16, 23, 9, 6, 41, 20, 38, 38, 9, 12, 0)
s = 178: (0, 17, 22, 6, 4, 33, 12, 22, 38, 8, 7, 0)
s = 179: (0, 16, 30, 6, 5, 31, 29, 16, 29, 12, 17, 0)
s = 180: (0, 16, 28, 4, 5, 36, 24, 23, 25, 14, 17, 0)
s = 181: (0, 17, 19, 9, 4, 30, 16, 21, 22, 10, 14, 0)
s = 182: (0, 22, 24, 8, 5, 22, 15, 25, 24, 6, 13, 0)
s = 183: (0, 16, 21, 6, 4, 60, 24, 14, 46, 9, 17, 0)
s = 184: (0, 19, 21, 8, 6, 63, 15, 20, 28, 10, 12, 0)
s = 185: (0, 19, 29, 9, 5, 33, 31, 24, 30, 8, 15, 0)
s = 186: (0, 17, 19, 10, 5, 25, 20, 22, 37, 11, 9, 0)
s = 187: (0, 17, 18, 4, 6, 28, 26, 12, 34, 10, 15, 0)
s = 188: (0, 16, 22, 10, 6, 22, 14, 16, 37, 10, 14, 0)
s = 189: (0, 19, 18, 9, 6, 25, 13, 29, 29, 10, 17, 0)
s = 190: (0, 18, 27, 6, 5, 25, 16, 17, 38, 14, 12, 0)
s = 191: (0, 21, 26, 8, 5, 23, 29, 41, 33, 9, 15, 0)
s = 192: (0, 16, 19, 9, 5, 41, 19, 28, 37, 6, 11, 0)
s = 193: (0, 12, 13, 10, 4, 23, 13, 12, 49, 7, 11, 0)
s = 194: (0, 17, 19, 11, 7, 27, 33, 17, 25, 9, 12, 0)
s = 195: (0, 17, 30, 6, 5, 53, 26, 25, 24, 9, 8, 0)
s = 196: (0, 14, 30, 7, 6, 31, 20, 16, 25, 7, 13, 0)
s = 197: (0, 21, 17, 5, 3, 37, 19, 16, 29, 5, 9, 0)
s = 198: (0, 14, 20, 6, 6, 28, 20, 13, 25, 5, 10, 0)
s = 199: (0, 10, 17, 7, 7, 24, 30, 16, 34, 7, 11, 0)
s = 200: (0, 19, 18, 7, 5, 24, 22, 22, 22, 10, 12, 0)
------------------------------------------------------------------------
RESOURCE k = 2
s = 1: (0, 26, 55, 16, 11, 122, 78, 56, 86, 52, 75, 0)
s = 2: (0, 19, 35, 18, 14, 122, 66, 37, 78, 37, 42, 0)
s = 3: (0, 21, 50, 17, 23, 112, 49, 31, 66, 41, 45, 0)
s = 4: (0, 27, 61, 17, 22, 109, 60, 32, 82, 73, 46, 0)
s = 5: (0, 44, 34, 22, 20, 117, 67, 43, 58, 82, 67, 0)
s = 6: (0, 28, 43, 15, 9, 145, 27, 44, 89, 55, 63, 0)
s = 7: (0, 33, 57, 25, 10, 140, 47, 25, 101, 40, 43, 0)
s = 8: (0, 21, 71, 17, 13, 109, 53, 36, 88, 57, 66, 0)
s = 9: (0, 30, 30, 24, 20, 89, 42, 56, 44, 61, 73, 0)
s = 10: (0, 33, 73, 11, 15, 103, 57, 36, 51, 55, 39, 0)
s = 11: (0, 18, 59, 22, 13, 87, 49, 28, 71, 100, 74, 0)
s = 12: (0, 17, 56, 15, 15, 110, 74, 45, 67, 76, 32, 0)
s = 13: (0, 20, 38, 17, 14, 92, 51, 28, 68, 37, 44, 0)
s = 14: (0, 31, 59, 9, 17, 95, 47, 37, 54, 91, 53, 0)
s = 15: (0, 18, 44, 12, 17, 160, 47, 44, 54, 54, 72, 0)
s = 16: (0, 24, 51, 21, 18, 114, 36, 29, 42, 97, 75, 0)
s = 17: (0, 33, 47, 19, 11, 98, 31, 34, 58, 45, 83, 0)
s = 18: (0, 25, 59, 15, 17, 112, 39, 62, 90, 49, 44, 0)
s = 19: (0, 20, 64, 22, 14, 127, 49, 30, 59, 55, 64, 0)
s = 20: (0, 27, 44, 12, 10, 113, 39, 51, 59, 85, 49, 0)
s = 21: (0, 26, 48, 20, 8, 102, 46, 37, 53, 88, 53, 0)
s = 22: (0, 39, 52, 15, 14, 104, 63, 27, 42, 62, 72, 0)
s = 23: (0, 27, 37, 12, 16, 122, 55, 36, 108, 99, 57, 0)
s = 24: (0, 29, 33, 13, 13, 126, 60, 38, 45, 60, 74, 0)
s = 25: (0, 28, 42, 13, 16, 66, 57, 67, 45, 57, 57, 0)
s = 26: (0, 22, 74, 11, 12, 65, 63, 48, 74, 93, 95, 0)
s = 27: (0, 19, 70, 12, 13, 98, 75, 43, 47, 64, 47, 0)
s = 28: (0, 37, 51, 15, 12, 98, 44, 26, 52, 77, 57, 0)
s = 29: (0, 39, 58, 12, 15, 83, 65, 56, 40, 74, 40, 0)
s = 30: (0, 28, 43, 10, 20, 101, 46, 53, 57, 60, 51, 0)
s = 31: (0, 28, 62, 17, 14, 113, 49, 61, 57, 50, 49, 0)
s = 32: (0, 25, 78, 25, 10, 129, 82, 55, 105, 73, 45, 0)
s = 33: (0, 33, 69, 14, 12, 130, 40, 30, 109, 44, 62, 0)
s = 34: (0, 36, 41, 17, 15, 66, 37, 57, 75, 37, 52, 0)
s = 35: (0, 25, 38, 20, 23, 113, 68, 43, 71, 77, 70, 0)
s = 36: (0, 34, 33, 26, 16, 78, 56, 38, 59, 84, 47, 0)
s = 37: (0, 47, 44, 21, 14, 77, 90, 42, 58, 72, 62, 0)
s = 38: (0, 23, 38, 11, 16, 79, 53, 55, 70, 44, 86, 0)
s = 39: (0, 23, 65, 13, 14, 147, 62, 63, 58, 82, 41, 0)
s = 40: (0, 26, 61, 17, 16, 126, 40, 61, 72, 45, 68, 0)
s = 41: (0, 21, 40, 11, 13, 170, 54, 46, 64, 64, 73, 0)
s = 42: (0, 24, 34, 18, 19, 128, 57, 73, 49, 84, 61, 0)
s = 43: (0, 39, 66, 21, 12, 142, 70, 30, 48, 101, 46, 0)
s = 44: (0, 14, 42, 19, 17, 76, 38, 28, 52, 85, 54, 0)
s = 45: (0, 30, 31, 17, 17, 92, 43, 39, 91, 80, 82, 0)
s = 46: (0, 24, 51, 21, 23, 113, 45, 48, 100, 70, 70, 0)
s = 47: (0, 36, 56, 19, 13, 131, 43, 39, 68, 81, 58, 0)
s = 48: (0, 30, 65, 11, 18, 65, 57, 39, 57, 83, 54, 0)
s = 49: (0, 21, 37, 17, 15, 121, 37, 25, 57, 49, 58, 0)
s = 50: (0, 22, 49, 19, 20, 138, 48, 59, 49, 69, 55, 0)
s = 51: (0, 35, 67, 17, 17, 83, 64, 41, 83, 58, 70, 0)
s = 52: (0, 24, 67, 15, 19, 76, 35, 29, 40, 36, 64, 0)
s = 53: (0, 33, 52, 15, 18, 155, 38, 30, 69, 38, 49, 0)
s = 54: (0, 22, 67, 16, 18, 72, 39, 49, 47, 78, 48, 0)
s = 55: (0, 20, 57, 19, 9, 140, 50, 48, 51, 34, 51, 0)
s = 56: (0, 30, 48, 25, 21, 101, 59, 41, 63, 52, 58, 0)
s = 57: (0, 35, 59, 13, 18, 129, 58, 27, 84, 79, 96, 0)
s = 58: (0, 32, 34, 15, 18, 80, 59, 31, 81, 81, 66, 0)
s = 59: (0, 42, 60, 17, 16, 117, 39, 61, 40, 48, 90, 0)
s = 60: (0, 47, 74, 11, 13, 65, 36, 49, 104, 93, 49, 0)
s = 61: (0, 26, 41, 20, 15, 61, 53, 56, 64, 110, 93, 0)
s = 62: (0, 25, 33, 18, 9, 157, 34, 83, 82, 55, 53, 0)
s = 63: (0, 28, 72, 19, 10, 59, 46, 46, 77, 43, 62, 0)
s = 64: (0, 19, 41, 17, 17, 106, 54, 32, 93, 85, 35, 0)
s = 65: (0, 21, 32, 16, 17, 79, 78, 41, 114, 75, 71, 0)
s = 66: (0, 46, 51, 14, 15, 147, 67, 75, 50, 63, 36, 0)
s = 67: (0, 24, 31, 19, 12, 111, 73, 67, 53, 42, 30, 0)
s = 68: (0, 24, 51, 10, 18, 129, 50, 36, 96, 53, 94, 0)
s = 69: (0, 17, 62, 13, 10, 95, 54, 56, 57, 58, 50, 0)
s = 70: (0, 20, 43, 12, 21, 97, 46, 39, 43, 88, 50, 0)
s = 71: (0, 37, 44, 14, 17, 59, 36, 39, 63, 81, 55, 0)
s = 72: (0, 28, 34, 18, 11, 128, 51, 39, 81, 42, 51, 0)
s = 73: (0, 30, 37, 15, 18, 78, 69, 59, 71, 65, 76, 0)
s = 74: (0, 26, 75, 23, 15, 89, 28, 52, 82, 78, 52, 0)
s = 75: (0, 23, 39, 26, 14, 98, 69, 52, 82, 38, 63, 0)
s = 76: (0, 35, 56, 17, 11, 100, 63, 50, 64, 45, 41, 0)
s = 77: (0, 28, 27, 16, 12, 129, 63, 48, 48, 62, 64, 0)
s = 78: (0, 28, 56, 14, 17, 90, 34, 52, 63, 49, 57, 0)
s = 79: (0, 17, 66, 18, 24, 116, 44, 39, 67, 67, 51, 0)
s = 80: (0, 18, 46, 14, 15, 118, 61, 23, 74, 78, 76, 0)
s = 81: (0, 18, 34, 13, 15, 63, 45, 50, 67, 80, 68, 0)
s = 82: (0, 24, 50, 13, 21, 96, 37, 72, 36, 67, 60, 0)
s = 83: (0, 34, 38, 14, 11, 108, 28, 40, 99, 52, 45, 0)
s = 84: (0, 20, 39, 16, 19, 109, 59, 49, 51, 66, 43, 0)
s = 85: (0, 37, 50, 23, 15, 136, 75, 41, 54, 41, 31, 0)
s = 86: (0, 28, 27, 13, 11, 93, 52, 51, 59, 45, 44, 0)
s = 87: (0, 30, 69, 18, 10, 85, 56, 49, 39, 62, 70, 0)
s = 88: (0, 38, 54, 24, 17, 59, 46, 56, 53, 87, 39, 0)
s = 89: (0, 19, 56, 18, 16, 81, 58, 35, 70, 57, 57, 0)
s = 90: (0, 39, 70, 17, 21, 122, 40, 63, 55, 67, 34, 0)
s = 91: (0, 31, 38, 13, 14, 80, 56, 31, 70, 80, 44, 0)
s = 92: (0, 35, 40, 14, 10, 105, 40, 51, 46, 41, 50, 0)
s = 93: (0, 48, 39, 16, 14, 110, 39, 48, 55, 41, 55, 0)
s = 94: (0, 41, 30, 15, 29, 102, 70, 51, 72, 67, 49, 0)
s = 95: (0, 46, 38, 11, 24, 79, 60, 47, 58, 71, 49, 0)
s = 96: (0, 27, 61, 18, 17, 120, 80, 58, 88, 85, 61, 0)
s = 97: (0, 28, 66, 18, 18, 93, 59, 38, 66, 70, 56, 0)
s = 98: (0, 30, 37, 16, 23, 127, 59, 51, 73, 80, 73, 0)
s = 99: (0, 29, 60, 24, 13, 203, 38, 29, 79, 53, 40, 0)
s = 100: (0, 20, 60, 16, 10, 85, 45, 34, 46, 81, 74, 0)
s = 101: (0, 26, 71, 12, 12, 91, 45, 32, 60, 49, 71, 0)
s = 102: (0, 31, 46, 12, 16, 184, 50, 40, 62, 52, 47, 0)
s = 103: (0, 18, 60, 13, 15, 126, 30, 52, 96, 83, 54, 0)
s = 104: (0, 41, 48, 24, 13, 92, 49, 49, 69, 97, 58, 0)
s = 105: (0, 24, 62, 28, 18, 65, 37, 56, 72, 56, 62, 0)
s = 106: (0, 25, 53, 15, 20, 86, 62, 29, 139, 52, 88, 0)
s = 107: (0, 18, 66, 12, 10, 122, 57, 47, 86, 43, 49, 0)
s = 108: (0, 27, 75, 11, 16, 70, 52, 30, 91, 110, 40, 0)
s = 109: (0, 33, 37, 19, 16, 76, 43, 34, 54, 68, 68, 0)
s = 110: (0, 16, 36, 23, 19, 63, 63, 55, 89, 38, 55, 0)
s = 111: (0, 40, 48, 26, 27, 155, 67, 32, 44, 113, 47, 0)
s = 112: (0, 26, 79, 11, 19, 67, 64, 28, 67, 66, 45, 0)
s = 113: (0, 20, 40, 12, 10, 76, 65, 42, 108, 68, 67, 0)
s = 114: (0, 28, 85, 14, 14, 89, 65, 46, 76, 48, 91, 0)
s = 115: (0, 19, 51, 21, 17, 201, 29, 36, 59, 56, 59, 0)
s = 116: (0, 22, 58, 15, 11, 98, 95, 52, 44, 98, 55, 0)
s = 117: (0, 28, 60, 16, 14, 121, 62, 38, 74, 60, 38, 0)
s = 118: (0, 38, 49, 9, 17, 96, 63, 28, 86, 85, 45, 0)
s = 119: (0, 20, 37, 16, 11, 81, 38, 66, 105, 44, 32, 0)
s = 120: (0, 32, 43, 18, 20, 72, 44, 55, 53, 45, 60, 0)
s = 121: (0, 23, 46, 22, 11, 131, 53, 36, 52, 117, 50, 0)
s = 122: (0, 23, 45, 21, 10, 117, 60, 53, 73, 60, 53, 0)
s = 123: (0, 30, 30, 12, 18, 99, 39, 44, 75, 47, 62, 0)
s = 124: (0, 28, 27, 19, 17, 163, 32, 50, 64, 59, 47, 0)
s = 125: (0, 37, 48, 19, 24, 149, 54, 44, 47, 70, 35, 0)
s = 126: (0, 28, 35, 15, 23, 82, 92, 28, 64, 117, 62, 0)
s = 127: (0, 23, 72, 12, 11, 97, 46, 35, 90, 71, 43, 0)
s = 128: (0, 26, 50, 19, 23, 95, 54, 34, 108, 74, 38, 0)
s = 129: (0, 18, 78, 13, 10, 174, 36, 49, 60, 49, 57, 0)
s = 130: (0, 32, 35, 20, 21, 74, 52, 59, 59, 75, 58, 0)
s = 131: (0, 18, 28, 24, 27, 69, 50, 54, 49, 37, 81, 0)
s = 132: (0, 28, 46, 20, 15, 77, 34, 54, 62, 54, 66, 0)
s = 133: (0, 41, 45, 20, 22, 81, 70, 35, 54, 94, 55, 0)
s = 134: (0, 37, 42, 23, 15, 155, 37, 55, 70, 61, 57, 0)
s = 135: (0, 36, 78, 11, 28, 117, 42, 33, 88, 44, 38, 0)
s = 136: (0, 31, 35, 16, 22, 174, 55, 48, 62, 41, 69, 0)
s = 137: (0, 20, 32, 16, 15, 59, 42, 49, 49, 62, 55, 0)
s = 138: (0, 33, 32, 26, 11, 88, 59, 47, 47, 56, 45, 0)
s = 139: (0, 18, 70, 16, 18, 74, 64, 70, 64, 64, 80, 0)
s = 140: (0, 23, 52, 16, 11, 110, 32, 38, 76, 81, 84, 0)
s = 141: (0, 21, 60, 12, 14, 88, 59, 42, 81, 59, 65, 0)
s = 142: (0, 29, 39, 16, 15, 115, 31, 45, 101, 98, 50, 0)
s = 143: (0, 33, 44, 18, 23, 144, 75, 49, 51, 75, 61, 0)
s = 144: (0, 18, 36, 13, 21, 154, 58, 31, 83, 74, 95, 0)
s = 145: (0, 32, 59, 9, 14, 99, 74, 52, 55, 58, 56, 0)
s = 146: (0, 19, 37, 17, 13, 93, 45, 54, 101, 84, 56, 0)
s = 147: (0, 16, 46, 17, 13, 63, 77, 46, 89, 36, 55, 0)
s = 148: (0, 24, 46, 20, 10, 101, 56, 54, 57, 61, 48, 0)
s = 149: (0, 23, 39, 21, 16, 151, 52, 54, 41, 58, 52, 0)
s = 150: (0, 16, 38, 14, 10, 75, 70, 62, 90, 48, 105, 0)
s = 151: (0, 30, 45, 15, 21, 113, 33, 22, 43, 79, 53, 0)
s = 152: (0, 31, 40, 13, 15, 82, 33, 70, 67, 57, 84, 0)
s = 153: (0, 26, 46, 13, 16, 88, 60, 48, 39, 45, 65, 0)
s = 154: (0, 19, 49, 18, 20, 118, 35, 61, 51, 87, 47, 0)
s = 155: (0, 26, 39, 16, 18, 167, 50, 53, 55, 90, 37, 0)
s = 156: (0, 21, 44, 15, 16, 102, 64, 30, 62, 63, 53, 0)
s = 157: (0, 20, 30, 14, 11, 107, 68, 25, 60, 59, 42, 0)
s = 158: (0, 28, 61, 18, 13, 63, 52, 41, 98, 47, 71, 0)
s = 159: (0, 18, 53, 24, 22, 131, 30, 45, 90, 60, 75, 0)
s = 160: (0, 32, 47, 18, 17, 109, 44, 38, 47, 63, 48, 0)
s = 161: (0, 23, 65, 9, 16, 89, 46, 37, 71, 64, 52, 0)
s = 162: (0, 35, 63, 16, 17, 113, 45, 66, 71, 72, 63, 0)
s = 163: (0, 16, 79, 24, 14, 77, 71, 38, 66, 79, 54, 0)
s = 164: (0, 16, 66, 15, 14, 90, 101, 34, 65, 62, 53, 0)
s = 165: (0, 33, 36, 16, 10, 113, 59, 68, 82, 70, 43, 0)
s = 166: (0, 19, 34, 11, 20, 71, 36, 35, 91, 70, 105, 0)
s = 167: (0, 25, 55, 15, 11, 139, 46, 42, 42, 56, 43, 0)
s = 168: (0, 22, 39, 18, 13, 118, 42, 57, 85, 98, 56, 0)
s = 169: (0, 21, 45, 25, 13, 114, 55, 55, 51, 45, 42, 0)
s = 170: (0, 21, 47, 16, 20, 122, 59, 58, 41, 83, 72, 0)
s = 171: (0, 31, 46, 10, 11, 132, 73, 34, 73, 70, 59, 0)
s = 172: (0, 19, 28, 16, 17, 97, 69, 30, 87, 69, 58, 0)
s = 173: (0, 25, 36, 18, 16, 79, 68, 64, 65, 57, 75, 0)
s = 174: (0, 49, 27, 18, 17, 72, 41, 56, 56, 59, 84, 0)
s = 175: (0, 25, 65, 15, 13, 135, 66, 64, 70, 52, 32, 0)
s = 176: (0, 16, 45, 15, 12, 89, 48, 29, 79, 64, 83, 0)
s = 177: (0, 26, 51, 21, 17, 121, 51, 75, 79, 67, 54, 0)
s = 178: (0, 27, 50, 13, 12, 98, 31, 44, 81, 61, 31, 0)
s = 179: (0, 25, 68, 13, 13, 91, 74, 32, 61, 92, 76, 0)
s = 180: (0, 26, 64, 9, 15, 108, 60, 46, 53, 108, 76, 0)
s = 181: (0, 27, 42, 19, 12, 89, 40, 42, 47, 78, 65, 0)
s = 182: (0, 35, 54, 17, 14, 65, 37, 49, 51, 42, 59, 0)
s = 183: (0, 25, 47, 12, 11, 178, 63, 28, 96, 66, 80, 0)
s = 184: (0, 30, 48, 18, 16, 187, 38, 40, 60, 80, 56, 0)
s = 185: (0, 31, 65, 20, 14, 99, 80, 47, 62, 62, 70, 0)
s = 186: (0, 27, 42, 22, 14, 75, 52, 44, 79, 81, 39, 0)
s = 187: (0, 27, 41, 10, 16, 82, 66, 24, 71, 73, 68, 0)
s = 188: (0, 26, 50, 22, 17, 66, 36, 31, 79, 75, 62, 0)
s = 189: (0, 30, 41, 20, 16, 75, 32, 58, 60, 76, 76, 0)
s = 190: (0, 28, 62, 13, 14, 75, 42, 33, 80, 107, 53, 0)
s = 191: (0, 34, 60, 18, 15, 67, 74, 82, 69, 65, 68, 0)
s = 192: (0, 26, 42, 20, 14, 122, 49, 55, 77, 42, 48, 0)
s = 193: (0, 20, 29, 22, 10, 67, 32, 24, 103, 49, 52, 0)
s = 194: (0, 28, 43, 24, 19, 80, 84, 34, 53, 67, 54, 0)
s = 195: (0, 28, 69, 14, 13, 158, 66, 49, 50, 71, 35, 0)
s = 196: (0, 23, 68, 14, 18, 91, 51, 32, 54, 50, 58, 0)
s = 197: (0, 34, 38, 10, 9, 110, 50, 31, 62, 38, 39, 0)
s = 198: (0, 22, 44, 13, 17, 82, 51, 26, 52, 40, 47, 0)
s = 199: (0, 16, 37, 16, 19, 71, 78, 32, 71, 53, 50, 0)
s = 200: (0, 30, 40, 16, 15, 72, 55, 44, 46, 76, 52, 0)
************************************************************************
ES/LS-VALUES:
jobnr.   ES(i)    LS(i)
------------------------------------------------------------------------
  0        0        0
  1        0       45
  2        0       43
  3        0       76
  4        5       61
  5        5       49
  6       18       63
  7       25       71
  8       31       77
  9        7       78
 10       25       78
 11       39       86
************************************************************************
BIG-M-VALUES:
M1 = 49, M2 = 271
************************************************************************
